     WARNING:
  The displacements and/or stresses at intermediate            points are 
  generated linearly using the coordinates of the nodes.       Consequently
  the automatic generation of the boundary conditions can      not be 
  performed if the boundary is curved. However it can be used  for the
  case of constant evolution.

     Plate in traction, stress conditions.             
     **************************************************


     General constants :

     Number of elements........        8
     Number of internal points.        5
     Elasticity modulus........  2100000.
     Poisson coefficient.......         .200
     Number of Gauss points....        4
     Type of problem...........  Plane Stress

     node    x coor    y coor

        1    0.0000    0.0000
        2    3.0000    0.0000
        3    6.0000    0.0000
        4    6.0000    3.0000
        5    6.0000    6.0000
        6    3.0000    6.0000
        7    0.0000    6.0000
        8    0.0000    3.0000
        9    0.0000    0.0000

 node  code       ul          vl          ug          vg

    1      1  0.0000E+00  0.0000E+00  0.0000E+00  0.0000E+00
    2      1  0.0000E+00  0.0000E+00  0.0000E+00  0.0000E+00
    3      1  0.0000E+00  0.0000E+00  0.0000E+00  0.0000E+00
    4      1  0.0000E+00  0.0000E+00  0.0000E+00  0.0000E+00
    5      1  0.0000E+00  0.0000E+00  0.0000E+00  0.0000E+00
    6      1  0.0000E+00  0.0000E+00  0.0000E+00  0.0000E+00
    7      1  0.0000E+00  0.0000E+00  0.0000E+00  0.0000E+00
    8      1  0.0000E+00  0.0000E+00  0.0000E+00  0.0000E+00
    9      1  0.0000E+00  0.0000E+00  0.0000E+00  0.0000E+00

 node   code      nsb         tsb         nsa         tsa

    1      1  0.0000E+00  0.0000E+00  0.1000E+04  0.0000E+00
    2      1  0.1000E+04  0.0000E+00  0.1000E+04  0.0000E+00
    3      1  0.1000E+04  0.0000E+00  0.0000E+00  0.0000E+00
    4      1  0.0000E+00  0.0000E+00  0.0000E+00  0.0000E+00
    5      1  0.0000E+00  0.0000E+00  0.1000E+04  0.0000E+00
    6      1  0.1000E+04  0.0000E+00  0.1000E+04  0.0000E+00
    7      1  0.1000E+04  0.0000E+00  0.0000E+00  0.0000E+00
    8      1  0.0000E+00  0.0000E+00  0.0000E+00  0.0000E+00
    9      1  0.0000E+00  0.0000E+00  0.1000E+04  0.0000E+00

     The number of displacements to be prevented is    4

     The positions of these displacements are
         2
         6
        12
        16

     Plate in traction, stress conditions.             
     **************************************************

     Solution on the boundary:

     boundary points

      node  xdisplacement  ydisplacement

         1  0.3571288E-03 -0.1428558E-02
         2  0.0000000E+00 -0.1428589E-02
         3 -0.3571288E-03 -0.1428558E-02
         4 -0.3571700E-03  0.0000000E+00
         5 -0.3571288E-03  0.1428558E-02
         6  0.0000000E+00  0.1428589E-02
         7  0.3571288E-03  0.1428558E-02
         8  0.3571700E-03  0.0000000E+00

      node  nor stress bf  nor stress af  tan stress bf  tan stress af

         1  0.0000000E+00  0.1000000E+04  0.0000000E+00  0.0000000E+00
         2  0.1000000E+04  0.1000000E+04  0.0000000E+00  0.0000000E+00
         3  0.1000000E+04  0.0000000E+00  0.0000000E+00  0.0000000E+00
         4  0.0000000E+00  0.0000000E+00  0.0000000E+00  0.0000000E+00
         5  0.0000000E+00  0.1000000E+04  0.0000000E+00  0.0000000E+00
         6  0.1000000E+04  0.1000000E+04  0.0000000E+00  0.0000000E+00
         7  0.1000000E+04  0.0000000E+00  0.0000000E+00  0.0000000E+00
         8  0.0000000E+00  0.0000000E+00  0.0000000E+00  0.0000000E+00

     Solution in the domain:

     internal points


    x coor    y coor   xdisplacement   ydisplacement

     2.000     2.000  0.11950434E-03 -0.47648357E-03
     2.000     4.000  0.11950434E-03  0.47648357E-03
     3.000     3.000  0.54210109E-19 -0.21006417E-18
     4.000     2.000 -0.11950434E-03 -0.47648357E-03
     4.000     4.000 -0.11950434E-03  0.47648357E-03

    x coor    y coor       stress xx       stress yy       stress xy

     2.000     2.000 -0.24291108E+01  0.10023883E+04 -0.10644134E+01
     2.000     4.000 -0.24291108E+01  0.10023883E+04  0.10644134E+01
     3.000     3.000 -0.16611884E-01  0.10000213E+04 -0.71054274E-14
     4.000     2.000 -0.24291108E+01  0.10023883E+04  0.10644134E+01
     4.000     4.000 -0.24291108E+01  0.10023883E+04 -0.10644134E+01
